--- Job fixed_problem.gms Start 07/12/22 11:09:45 32.2.0 rc62c018 WEX-WEI x86 64bit/MS Windows
--- Applying:
    C:\GAMS\32\gmsprmNT.txt
--- GAMS Parameters defined
    Input C:\Users\charl\OneDrive\Dokumente\A_Uni\HiWi\ArticleSubgradient\Code\SampleRun_Environment_Solar\100Scens\tol05\Scenario_1\fixed_problem.gms
    PageSize 0
    ScrDir C:\Users\charl\OneDrive\Dokumente\A_Uni\HiWi\ArticleSubgradient\Code\SampleRun_Environment_Solar\100Scens\tol05\Scenario_1\225c\
    SysDir C:\GAMS\32\
    LogOption 3
    ErrMsg 1
    ErrorLog 99
    IDE 1
    LstTitleLeftAligned 1
GAMS 32.2.0   Copyright (C) 1987-2020 GAMS Development. All rights reserved
Licensee: Small MUD - 5 User License                     S200323/0001AN-GEN
          Friedrich-Alexander-Universitaet Erlangen-Nurnberg         DC7699
          C:\GAMS\32\gamslice.txt
--- Starting compilation
--- fixed_problem.gms(15) 2 Mb
--- . input.gms(8) 3 Mb
--- .. solar_scenarios.csv(101) 3 Mb
--- . input.gms(22) 3 Mb
--- .. scenario_sorted.csv(101) 3 Mb
--- . input.gms(38) 3 Mb
--- .. battery_revenue.csv(25) 3 Mb
--- . input.gms(105) 3 Mb
--- fixed_problem.gms(32) 3 Mb
--- . sampled_dynamic.csv(25) 3 Mb
--- fixed_problem.gms(44) 3 Mb
--- . equations_all.gms(76) 3 Mb
--- fixed_problem.gms(84) 3 Mb
--- Starting execution: elapsed 0:00:00.044
--- fixed_problem.gms(483) 5 Mb
--- Generating MIP model schedule
--- fixed_problem.gms(428) 5 Mb
--- Starting Equ Objective: elapsed 0:00:00.053
--- fixed_problem.gms(430) 5 Mb
--- Starting Equ Const1: elapsed 0:00:00.085
--- fixed_problem.gms(436) 6 Mb
--- Starting Equ Const_chance_1: elapsed 0:00:00.090
--- fixed_problem.gms(443) 7 Mb
--- Starting Equ Const_chance_2: elapsed 0:00:00.095
--- fixed_problem.gms(486) 7 Mb
--- LOOPS iterFIX = iter1
---   4,702 rows  7,325 columns  21,325 non-zeroes
---   100 discrete-columns
--- Executing CPLEX (Solvelink=2): elapsed 0:00:00.116

IBM ILOG CPLEX   32.2.0 rc62c018 Released Aug 26, 2020 WEI x86 64bit/MS Window
--- GAMS/Cplex Link licensed for continuous and discrete problems.
Cplex 12.10.0.0

Reading data...
Starting Cplex...
Space for names approximately 0.29 Mb
Use option 'names no' to turn use of names off
Version identifier: 12.10.0.0 | 2019-11-26 | 843d4de2ae
CPXPARAM_Advance                                 0
CPXPARAM_Threads                                 8
CPXPARAM_Parallel                                1
CPXPARAM_MIP_Display                             4
CPXPARAM_TimeLimit                               1800
CPXPARAM_Tune_TimeLimit                          360
CPXPARAM_MIP_Tolerances_AbsMIPGap                0
CPXPARAM_MIP_Tolerances_MIPGap                   0
CPXPARAM_WorkDir                                 "C:\Users\charl\OneDrive\Dokumente\A_Uni\HiWi\ArticleSubgradient\Code\SampleRun_Environment_Solar\100Scens\tol05\Scenario_1\225c\"
Row 'Const_chance_2' infeasible, all entries at implied bounds.
Presolve time = 0.00 sec. (1.58 ticks)

Root node processing (before b&c):
  Real time             =    0.00 sec. (2.00 ticks)
Parallel b&c, 8 threads:
  Real time             =    0.00 sec. (0.00 ticks)
  Sync time (average)   =    0.00 sec.
  Wait time (average)   =    0.00 sec.
                          ------------
Total (root+branch&cut) =    0.00 sec. (2.00 ticks)
MIP status(103): integer infeasible
Cplex Time: 0.02sec (det. 2.02 ticks)
CPLEX Error  1217: No solution exists.
Problem is integer infeasible.
--- Reading solution for model schedule
--- Executing after solve: elapsed 0:00:00.228
--- fixed_problem.gms(483) 7 Mb
--- Generating MIP model schedule
--- fixed_problem.gms(428) 7 Mb
--- Starting Equ Objective: elapsed 0:00:00.228
--- fixed_problem.gms(430) 7 Mb
--- Starting Equ Const1: elapsed 0:00:00.269
--- fixed_problem.gms(436) 7 Mb
--- Starting Equ Const_chance_1: elapsed 0:00:00.276
--- fixed_problem.gms(443) 7 Mb
--- Starting Equ Const_chance_2: elapsed 0:00:00.283
--- fixed_problem.gms(486) 7 Mb
--- LOOPS iterFIX = iter2
---   4,702 rows  7,325 columns  21,325 non-zeroes
---   100 discrete-columns
--- Executing CPLEX (Solvelink=2): elapsed 0:00:00.302

IBM ILOG CPLEX   32.2.0 rc62c018 Released Aug 26, 2020 WEI x86 64bit/MS Window
--- GAMS/Cplex Link licensed for continuous and discrete problems.
Cplex 12.10.0.0

Reading data...
Starting Cplex...
Space for names approximately 0.29 Mb
Use option 'names no' to turn use of names off
Version identifier: 12.10.0.0 | 2019-11-26 | 843d4de2ae
CPXPARAM_Advance                                 0
CPXPARAM_Threads                                 8
CPXPARAM_Parallel                                1
CPXPARAM_MIP_Display                             4
CPXPARAM_TimeLimit                               1800
CPXPARAM_Tune_TimeLimit                          360
CPXPARAM_MIP_Tolerances_AbsMIPGap                0
CPXPARAM_MIP_Tolerances_MIPGap                   0
CPXPARAM_WorkDir                                 "C:\Users\charl\OneDrive\Dokumente\A_Uni\HiWi\ArticleSubgradient\Code\SampleRun_Environment_Solar\100Scens\tol05\Scenario_1\225c\"
Tried aggregator 1 time.
MIP Presolve eliminated 149 rows and 325 columns.
MIP Presolve modified 754 coefficients.
Reduced MIP has 4553 rows, 7000 columns, and 15956 nonzeros.
Reduced MIP has 100 binaries, 0 generals, 0 SOSs, and 0 indicators.
Presolve time = 0.03 sec. (6.98 ticks)
Probing time = 0.00 sec. (0.29 ticks)
Tried aggregator 1 time.
Detecting symmetries...
Reduced MIP has 4553 rows, 7000 columns, and 15956 nonzeros.
Reduced MIP has 100 binaries, 0 generals, 0 SOSs, and 0 indicators.
Presolve time = 0.03 sec. (10.35 ticks)
Probing time = 0.02 sec. (0.28 ticks)
MIP emphasis: balance optimality and feasibility.
MIP search method: dynamic search.
Parallel mode: deterministic, using up to 8 threads.
Parallel mode: deterministic, using up to 2 threads for parallel tasks at root LP.
Parallel mode: deterministic, using up to 6 threads for concurrent optimization:
 * Starting dual Simplex on 1 thread...
 * Starting Barrier on 4 threads...
 * Starting primal Simplex on 1 thread...
Initializing dual steep norms . . .

Iteration log . . .
Iteration:     1   Dual objective     =          -267.120487
Perturbation started.
Iteration:   101   Dual objective     =          -267.120487
Iteration:   414   Dual objective     =          -267.066584
Iteration:   667   Dual objective     =          -266.805024
Iteration:   846   Dual objective     =          -263.562690
Iteration:  1020   Dual objective     =          -262.946187
Iteration:  1190   Dual objective     =          -262.862925
Removing perturbation.

Dual simplex solved model.

Root relaxation solution time = 0.06 sec. (25.26 ticks)

        Nodes                                         Cuts/
   Node  Left     Objective  IInf  Best Integer    Best Bound    ItCnt     Gap

      0     0     -262.9480    92                   -262.9480     1220         
      0     0     -261.6898    92                   Cuts: 582     1987         
*     0+    0                         -261.3812     -261.6898             0.12%
Found incumbent of value -261.381201 after 0.31 sec. (137.05 ticks)
      0     0     -261.5186    92     -261.3812      Cuts: 28     2137    0.05%
      0     0     -261.5182    92     -261.3812       Cuts: 9     2138    0.05%
*     0+    0                         -261.4007     -261.5182             0.04%
Found incumbent of value -261.400700 after 0.53 sec. (218.78 ticks)
Detecting symmetries...
      0     2     -261.5182     6     -261.4007     -261.4984     2138    0.04%
Elapsed time = 0.69 sec. (234.86 ticks, tree = 0.02 MB, solutions = 2)
    112     6     -261.4362     7     -261.4007     -261.4419     3109    0.02%
                                                     Cuts: 11                  
*   205     2      integral     0     -261.4163     -261.4230     3665    0.00%
                                                  Impl Bds: 6                  
Found incumbent of value -261.416319 after 1.38 sec. (620.56 ticks)

Implied bound cuts applied:  205
Flow cuts applied:  103
Mixed integer rounding cuts applied:  89
Lift and project cuts applied:  2
Gomory fractional cuts applied:  41

Root node processing (before b&c):
  Real time             =    0.61 sec. (232.49 ticks)
Parallel b&c, 8 threads:
  Real time             =    0.80 sec. (395.95 ticks)
  Sync time (average)   =    0.54 sec.
  Wait time (average)   =    0.00 sec.
                          ------------
Total (root+branch&cut) =    1.41 sec. (628.44 ticks)
MIP status(101): integer optimal solution
Cplex Time: 1.41sec (det. 628.46 ticks)
Fixing integer variables, and solving final LP...
Version identifier: 12.10.0.0 | 2019-11-26 | 843d4de2ae
CPXPARAM_Advance                                 2
CPXPARAM_Threads                                 8
CPXPARAM_Parallel                                1
CPXPARAM_MIP_Display                             4
CPXPARAM_TimeLimit                               1800
CPXPARAM_Tune_TimeLimit                          360
CPXPARAM_MIP_Tolerances_AbsMIPGap                0
CPXPARAM_MIP_Tolerances_MIPGap                   0
CPXPARAM_WorkDir                                 "C:\Users\charl\OneDrive\Dokumente\A_Uni\HiWi\ArticleSubgradient\Code\SampleRun_Environment_Solar\100Scens\tol05\Scenario_1\225c\"
Parallel mode: deterministic, using up to 8 threads for concurrent optimization:
 * Starting dual Simplex on 1 thread...
 * Starting Barrier on 6 threads...
 * Starting primal Simplex on 1 thread...
Tried aggregator 1 time.
LP Presolve eliminated 249 rows and 470 columns.
Reduced LP has 4453 rows, 6855 columns, and 13376 nonzeros.
Presolve time = 0.03 sec. (7.38 ticks)
Initializing dual steep norms . . .

Iteration log . . .
Iteration:     1   Dual objective     =          -267.120487
Perturbation started.
Iteration:   101   Dual objective     =          -267.120487
Iteration:   442   Dual objective     =          -267.043803
Iteration:   656   Dual objective     =          -264.230485
Iteration:   890   Dual objective     =          -261.568647
Removing perturbation.

Dual simplex solved model.

Fixed MIP status(1): optimal
Cplex Time: 0.06sec (det. 26.34 ticks)

Proven optimal solution.

MIP Solution:         -261.416319    (3735 iterations, 208 nodes)
Final Solve:          -261.416319    (1102 iterations)

Best possible:        -261.416319
Absolute gap:            0.000000
Relative gap:            0.000000

--- Reading solution for model schedule
--- Executing after solve: elapsed 0:00:01.837
--- fixed_problem.gms(483) 7 Mb
--- Generating MIP model schedule
--- fixed_problem.gms(428) 7 Mb
--- Starting Equ Objective: elapsed 0:00:01.837
--- fixed_problem.gms(430) 7 Mb
--- Starting Equ Const1: elapsed 0:00:01.878
--- fixed_problem.gms(436) 7 Mb
--- Starting Equ Const_chance_1: elapsed 0:00:01.885
--- fixed_problem.gms(443) 7 Mb
--- Starting Equ Const_chance_2: elapsed 0:00:01.894
--- fixed_problem.gms(486) 7 Mb
--- LOOPS iterFIX = iter3
---   4,702 rows  7,325 columns  21,325 non-zeroes
---   100 discrete-columns
--- Executing CPLEX (Solvelink=2): elapsed 0:00:01.913

IBM ILOG CPLEX   32.2.0 rc62c018 Released Aug 26, 2020 WEI x86 64bit/MS Window
--- GAMS/Cplex Link licensed for continuous and discrete problems.
Cplex 12.10.0.0

Reading data...
Starting Cplex...
Space for names approximately 0.29 Mb
Use option 'names no' to turn use of names off
Version identifier: 12.10.0.0 | 2019-11-26 | 843d4de2ae
CPXPARAM_Advance                                 2
CPXPARAM_Threads                                 8
CPXPARAM_Parallel                                1
CPXPARAM_MIP_Display                             4
CPXPARAM_TimeLimit                               1800
CPXPARAM_Tune_TimeLimit                          360
CPXPARAM_MIP_Tolerances_AbsMIPGap                0
CPXPARAM_MIP_Tolerances_MIPGap                   0
CPXPARAM_WorkDir                                 "C:\Users\charl\OneDrive\Dokumente\A_Uni\HiWi\ArticleSubgradient\Code\SampleRun_Environment_Solar\100Scens\tol05\Scenario_1\225c\"
Tried aggregator 1 time.
MIP Presolve eliminated 149 rows and 325 columns.
MIP Presolve modified 854 coefficients.
Reduced MIP has 4553 rows, 7000 columns, and 15956 nonzeros.
Reduced MIP has 100 binaries, 0 generals, 0 SOSs, and 0 indicators.
Presolve time = 0.00 sec. (6.99 ticks)
Probing time = 0.02 sec. (0.29 ticks)
Tried aggregator 1 time.
Detecting symmetries...
Reduced MIP has 4553 rows, 7000 columns, and 15956 nonzeros.
Reduced MIP has 100 binaries, 0 generals, 0 SOSs, and 0 indicators.
Presolve time = 0.02 sec. (10.34 ticks)
Probing time = 0.00 sec. (0.28 ticks)
MIP emphasis: balance optimality and feasibility.
MIP search method: dynamic search.
Parallel mode: deterministic, using up to 8 threads.
Parallel mode: deterministic, using up to 2 threads for parallel tasks at root LP.
Parallel mode: deterministic, using up to 6 threads for concurrent optimization:
 * Starting dual Simplex on 1 thread...
 * Starting Barrier on 4 threads...
 * Starting primal Simplex on 1 thread...
Initializing dual steep norms . . .

Iteration log . . .
Iteration:     1   Dual objective     =          -262.759774
Perturbation started.
Iteration:   101   Dual objective     =          -262.759774
Iteration:   414   Dual objective     =          -262.705871
Iteration:   667   Dual objective     =          -262.444312
Iteration:   838   Dual objective     =          -259.201427
Iteration:  1005   Dual objective     =          -258.842292
Removing perturbation.
Iteration:  1048    Objective     =          -258.918251

Dual simplex solved model.

Root relaxation solution time = 0.06 sec. (23.31 ticks)

        Nodes                                         Cuts/
   Node  Left     Objective  IInf  Best Integer    Best Bound    ItCnt     Gap

      0     0     -258.9183    66                   -258.9183     1049         
      0     0     -258.1387    66                   Cuts: 336     1489         
*     0+    0                         -257.7221     -258.1387             0.16%
Found incumbent of value -257.722087 after 0.30 sec. (123.68 ticks)
      0     0     -257.8606    66     -257.7221      Cuts: 89     1635    0.05%

Implied bound cuts applied:  129
Flow cuts applied:  85
Mixed integer rounding cuts applied:  60
Gomory fractional cuts applied:  26

Root node processing (before b&c):
  Real time             =    0.39 sec. (158.37 ticks)
Parallel b&c, 8 threads:
  Real time             =    0.00 sec. (0.00 ticks)
  Sync time (average)   =    0.00 sec.
  Wait time (average)   =    0.00 sec.
                          ------------
Total (root+branch&cut) =    0.39 sec. (158.37 ticks)
MIP status(113): aborted
Cplex Time: 0.39sec (det. 158.39 ticks)
Fixing integer variables, and solving final LP...
Version identifier: 12.10.0.0 | 2019-11-26 | 843d4de2ae
CPXPARAM_Advance                                 2
CPXPARAM_Threads                                 8
CPXPARAM_Parallel                                1
CPXPARAM_MIP_Display                             4
CPXPARAM_TimeLimit                               1800
CPXPARAM_Tune_TimeLimit                          360
CPXPARAM_MIP_Tolerances_AbsMIPGap                0
CPXPARAM_MIP_Tolerances_MIPGap                   0
CPXPARAM_WorkDir                                 "C:\Users\charl\OneDrive\Dokumente\A_Uni\HiWi\ArticleSubgradient\Code\SampleRun_Environment_Solar\100Scens\tol05\Scenario_1\225c\"
Parallel mode: deterministic, using up to 8 threads for concurrent optimization:
 * Starting dual Simplex on 1 thread...
 * Starting Barrier on 6 threads...
 * Starting primal Simplex on 1 thread...
Tried aggregator 1 time.
LP Presolve eliminated 255 rows and 470 columns.
Reduced LP has 4447 rows, 6855 columns, and 13364 nonzeros.
Presolve time = 0.02 sec. (7.38 ticks)
Initializing dual steep norms . . .

Iteration log . . .
Iteration:     1   Dual objective     =          -262.759774
Perturbation started.
Iteration:   101   Dual objective     =          -262.759774
Iteration:   440   Dual objective     =          -262.682560
Iteration:   650   Dual objective     =          -259.209100
Removing perturbation.

Dual simplex solved model.

Fixed MIP status(1): optimal
Cplex Time: 0.06sec (det. 24.60 ticks)

Problem aborted.

MIP Solution:         -257.722087    (1635 iterations, 0 nodes)
Final Solve:          -257.722087    (916 iterations)

Best possible:        -257.860561
Absolute gap:            0.138473
Relative gap:            0.000537

--- Reading solution for model schedule
--- Executing after solve: elapsed 0:00:02.442
--- fixed_problem.gms(483) 7 Mb
--- Generating MIP model schedule
--- fixed_problem.gms(428) 7 Mb
--- Starting Equ Objective: elapsed 0:00:02.442
--- fixed_problem.gms(430) 7 Mb
--- Starting Equ Const1: elapsed 0:00:02.485
*** Error at line 428: Execution halted: Triggered by pending CtrlC event
--- fixed_problem.gms(486) 7 Mb 1 Error
*** SOLVE aborted
--- Profile Summary (532 records processed)
     1.531   0.007GB       486 Solve Alg  schedule
     0.516   0.007GB       486 Solve Alg  schedule
     0.110   0.007GB       486 Solve Alg  schedule
     0.047   0.007GB       428 Equation   Objective (1)
     0.046   0.007GB       428 Equation   Objective (1)
     0.032   0.007GB       428 Equation   Objective (1)
     0.031   0.005GB       428 Equation   Objective (1)
     0.016   0.007GB       486 Solve Fini schedule (21325)
     0.016   0.007GB       486 Solve Fini schedule (21325)
     0.016   0.004GB       338 Assignment dummy (1)
--- fixed_problem.gms(486) 7 Mb 1 Error
*** Status: Execution error(s)
--- Job fixed_problem.gms Stop 07/12/22 11:09:48 elapsed 0:00:02.488
